[runlim] version:		1.10
[runlim] time limit:		311040000 seconds
[runlim] real time limit:	1800 seconds
[runlim] space limit:		30000 MB
[runlim] argv[0]:		python
[runlim] argv[1]:		FE.py
[runlim] argv[2]:		Q-494_bus.mtx.rnd
[runlim] start:			Wed Oct  9 04:06:54 2024
[runlim] main pid:		17303
[runlim] log captured:
[runlim] sample:		10.0 time, 10.2 real, 1183.4 MB
246
219
Version identifier: 20.1.0.0 | 2020-11-10 | 9bedb6d68
CPXPARAM_Simplex_PGradient                       4
CPXPARAM_Read_DataCheck                          1
CPXPARAM_MIP_Strategy_File                       3
CPXPARAM_TimeLimit                               1800
CPXPARAM_WorkMem                                 122880
[runlim] sample:		20.0 time, 20.2 real, 2163.6 MB
[runlim] sample:		30.0 time, 30.2 real, 2982.3 MB
Presolve has eliminated 247 rows and 247 columns...
Tried aggregator 1 time.
[runlim] sample:		41.0 time, 40.2 real, 3018.1 MB
[runlim] sample:		51.0 time, 50.2 real, 3018.1 MB
[runlim] sample:		61.0 time, 60.2 real, 3018.1 MB
[runlim] sample:		71.0 time, 70.2 real, 3018.1 MB
[runlim] sample:		81.0 time, 80.2 real, 3018.1 MB
Presolve has eliminated 247 rows and 247 columns...
MIP Presolve eliminated 247 rows and 247 columns.
MIP Presolve modified 32631 coefficients.
Reduced MIP has 162575 rows, 243789 columns, and 71023317 nonzeros.
Reduced MIP has 243789 binaries, 0 generals, 0 SOSs, and 0 indicators.
Presolve time = 60.37 sec. (79593.04 ticks)
[runlim] sample:		91.0 time, 90.2 real, 6979.1 MB
[runlim] sample:		101.0 time, 100.2 real, 7002.2 MB
[runlim] sample:		111.0 time, 110.2 real, 7002.2 MB
[runlim] sample:		121.0 time, 120.2 real, 7002.2 MB
[runlim] sample:		131.0 time, 130.2 real, 7002.2 MB
[runlim] sample:		141.0 time, 140.2 real, 7002.2 MB
Probing time = 0.42 sec. (101.74 ticks)
[runlim] sample:		151.8 time, 150.2 real, 6469.4 MB
Presolve has eliminated 0 rows and 0 columns...
[runlim] sample:		161.8 time, 160.2 real, 6527.8 MB
Tried aggregator 1 time.
[runlim] sample:		172.8 time, 170.2 real, 6514.2 MB
[runlim] sample:		182.8 time, 180.2 real, 6514.2 MB
[runlim] sample:		192.8 time, 190.2 real, 6514.2 MB
[runlim] sample:		202.8 time, 200.2 real, 6514.2 MB
Presolve has eliminated 0 rows and 0 columns...
[runlim] sample:		212.8 time, 210.2 real, 6514.2 MB
Detecting symmetries...
MIP Presolve modified 12264 coefficients.
Reduced MIP has 162519 rows, 243789 columns, and 71011053 nonzeros.
Reduced MIP has 243789 binaries, 0 generals, 0 SOSs, and 0 indicators.
Presolve time = 64.78 sec. (86304.90 ticks)
[runlim] sample:		231.2 time, 220.2 real, 9207.0 MB
Probing time = 0.53 sec. (101.80 ticks)
Clique table members: 162519.
MIP emphasis: balance optimality and feasibility.
MIP search method: dynamic search.
Parallel mode: deterministic, using up to 8 threads.
[runlim] sample:		271.9 time, 230.2 real, 15271.5 MB
[runlim] sample:		321.9 time, 240.2 real, 15687.3 MB
[runlim] sample:		371.9 time, 250.2 real, 17302.8 MB
[runlim] sample:		421.9 time, 260.2 real, 17305.6 MB
[runlim] sample:		471.9 time, 270.2 real, 18960.8 MB
[runlim] sample:		521.9 time, 280.2 real, 18961.2 MB
[runlim] sample:		571.9 time, 290.2 real, 19137.5 MB
[runlim] sample:		621.9 time, 300.2 real, 19283.4 MB
[runlim] sample:		671.9 time, 310.2 real, 19434.1 MB
[runlim] sample:		721.9 time, 320.2 real, 19596.4 MB
[runlim] sample:		769.4 time, 330.2 real, 19783.9 MB
[runlim] sample:		809.4 time, 340.2 real, 20976.1 MB
[runlim] sample:		852.2 time, 350.2 real, 22553.1 MB
[runlim] sample:		902.2 time, 360.2 real, 22048.1 MB
[runlim] sample:		952.2 time, 370.2 real, 21960.5 MB
[runlim] sample:		1002.2 time, 380.2 real, 21961.1 MB
[runlim] sample:		1052.2 time, 390.2 real, 21963.0 MB
[runlim] sample:		1102.2 time, 400.2 real, 21966.6 MB
[runlim] sample:		1152.0 time, 410.2 real, 21969.1 MB
[runlim] sample:		1192.0 time, 420.2 real, 21972.9 MB
[runlim] sample:		1232.0 time, 430.2 real, 21975.2 MB
[runlim] sample:		1276.0 time, 440.2 real, 22155.3 MB
[runlim] sample:		1346.0 time, 450.2 real, 23334.6 MB
[runlim] sample:		1415.9 time, 460.2 real, 23738.4 MB
[runlim] sample:		1482.8 time, 470.2 real, 20528.3 MB
[runlim] sample:		1542.8 time, 480.2 real, 20528.6 MB
[runlim] sample:		1602.2 time, 490.2 real, 20530.9 MB
[runlim] sample:		1662.2 time, 500.2 real, 20531.1 MB
[runlim] sample:		1722.2 time, 510.2 real, 20533.4 MB
[runlim] sample:		1782.0 time, 520.2 real, 20536.7 MB
[runlim] sample:		1842.0 time, 530.2 real, 20537.0 MB
[runlim] sample:		1902.0 time, 540.2 real, 20541.5 MB
[runlim] sample:		1961.7 time, 550.2 real, 20544.4 MB
[runlim] sample:		2021.7 time, 560.2 real, 20544.9 MB
[runlim] sample:		2081.7 time, 570.2 real, 20547.7 MB
[runlim] sample:		2141.2 time, 580.2 real, 20550.8 MB
[runlim] sample:		2201.2 time, 590.2 real, 20551.8 MB
[runlim] sample:		2261.0 time, 600.2 real, 20554.7 MB
[runlim] sample:		2320.6 time, 610.2 real, 20558.3 MB
[runlim] sample:		2380.6 time, 620.2 real, 20558.8 MB
[runlim] sample:		2440.4 time, 630.2 real, 20561.6 MB
[runlim] sample:		2500.4 time, 640.2 real, 20562.7 MB
[runlim] sample:		2560.4 time, 650.2 real, 20565.8 MB
[runlim] sample:		2620.1 time, 660.2 real, 20569.1 MB
[runlim] sample:		2680.1 time, 670.2 real, 20569.4 MB
[runlim] sample:		2740.1 time, 680.2 real, 20573.0 MB
[runlim] sample:		2799.8 time, 690.2 real, 20573.7 MB
[runlim] sample:		2859.8 time, 700.2 real, 20576.8 MB
[runlim] sample:		2919.8 time, 710.2 real, 20579.9 MB
[runlim] sample:		2979.6 time, 720.2 real, 20579.9 MB
[runlim] sample:		3039.6 time, 730.2 real, 20583.3 MB
[runlim] sample:		3099.3 time, 740.2 real, 20583.3 MB
[runlim] sample:		3159.3 time, 750.2 real, 20586.6 MB
[runlim] sample:		3219.3 time, 760.2 real, 20590.2 MB
[runlim] sample:		3268.9 time, 770.2 real, 20111.6 MB
[runlim] sample:		3308.9 time, 780.2 real, 18545.3 MB
[runlim] sample:		3348.9 time, 790.2 real, 18546.6 MB
[runlim] sample:		3388.9 time, 800.2 real, 18550.5 MB
[runlim] sample:		3428.9 time, 810.2 real, 18550.8 MB
[runlim] sample:		3468.9 time, 820.2 real, 18554.6 MB
[runlim] sample:		3508.9 time, 830.2 real, 18555.1 MB
[runlim] sample:		3548.9 time, 840.2 real, 18561.7 MB
[runlim] sample:		3588.9 time, 850.2 real, 18562.4 MB
[runlim] sample:		3628.9 time, 860.2 real, 18563.4 MB
[runlim] sample:		3668.9 time, 870.2 real, 18566.7 MB
[runlim] sample:		3708.9 time, 880.2 real, 18567.7 MB
[runlim] sample:		3748.9 time, 890.2 real, 18571.1 MB
[runlim] sample:		3788.9 time, 900.2 real, 18590.8 MB
[runlim] sample:		3828.9 time, 910.2 real, 18653.2 MB
[runlim] sample:		3868.9 time, 920.2 real, 18655.1 MB
[runlim] sample:		3908.9 time, 930.2 real, 18660.6 MB
[runlim] sample:		3948.9 time, 940.2 real, 18662.7 MB
[runlim] sample:		3988.9 time, 950.2 real, 18668.4 MB
[runlim] sample:		4028.9 time, 960.2 real, 18670.5 MB
[runlim] sample:		4068.9 time, 970.2 real, 18675.5 MB
[runlim] sample:		4108.9 time, 980.2 real, 18740.6 MB
[runlim] sample:		4148.9 time, 990.2 real, 18748.7 MB
[runlim] sample:		4188.9 time, 1000.2 real, 18751.5 MB
[runlim] sample:		4228.9 time, 1010.2 real, 18755.9 MB
[runlim] sample:		4268.9 time, 1020.2 real, 18762.4 MB
[runlim] sample:		4308.9 time, 1030.2 real, 18765.8 MB
[runlim] sample:		4348.9 time, 1040.2 real, 18771.7 MB
[runlim] sample:		4388.9 time, 1050.2 real, 18774.1 MB
[runlim] sample:		4428.9 time, 1060.2 real, 18776.4 MB
[runlim] sample:		4468.9 time, 1070.2 real, 18781.5 MB
[runlim] sample:		4508.9 time, 1080.2 real, 18784.3 MB
[runlim] sample:		4548.9 time, 1090.2 real, 18791.5 MB
[runlim] sample:		4588.9 time, 1100.2 real, 18794.8 MB
[runlim] sample:		4628.9 time, 1110.2 real, 18798.7 MB
[runlim] sample:		4668.9 time, 1120.2 real, 18805.8 MB
[runlim] sample:		4708.9 time, 1130.2 real, 18809.9 MB
[runlim] sample:		4748.9 time, 1140.2 real, 18817.1 MB
[runlim] sample:		4788.9 time, 1150.2 real, 18820.7 MB
[runlim] sample:		4828.9 time, 1160.2 real, 18823.8 MB
[runlim] sample:		4868.9 time, 1170.2 real, 18830.6 MB
[runlim] sample:		4908.9 time, 1180.2 real, 18834.7 MB
[runlim] sample:		4948.9 time, 1190.2 real, 18837.3 MB
[runlim] sample:		4988.9 time, 1200.2 real, 18846.8 MB
[runlim] sample:		5028.9 time, 1210.2 real, 18849.1 MB
[runlim] sample:		5068.9 time, 1220.2 real, 18856.6 MB
[runlim] sample:		5108.9 time, 1230.2 real, 18859.1 MB
[runlim] sample:		5148.9 time, 1240.2 real, 18863.1 MB
[runlim] sample:		5188.8 time, 1250.2 real, 18868.9 MB
[runlim] sample:		5228.8 time, 1260.2 real, 18873.3 MB
[runlim] sample:		5268.8 time, 1270.2 real, 18880.7 MB
[runlim] sample:		5308.8 time, 1280.2 real, 18895.1 MB
[runlim] sample:		5348.8 time, 1290.2 real, 18900.2 MB
[runlim] sample:		5388.8 time, 1300.2 real, 19788.8 MB
[runlim] sample:		5428.8 time, 1310.2 real, 19793.5 MB
[runlim] sample:		5468.8 time, 1320.2 real, 19797.8 MB
[runlim] sample:		5508.8 time, 1330.2 real, 19804.6 MB
[runlim] sample:		5548.8 time, 1340.2 real, 19807.3 MB
[runlim] sample:		5588.8 time, 1350.2 real, 19817.8 MB
[runlim] sample:		5628.8 time, 1360.2 real, 17247.5 MB
[runlim] sample:		5658.8 time, 1370.2 real, 17247.5 MB
[runlim] sample:		5688.8 time, 1380.2 real, 17250.8 MB
[runlim] sample:		5718.8 time, 1390.2 real, 17250.8 MB
[runlim] sample:		5748.8 time, 1400.2 real, 17251.6 MB
[runlim] sample:		5778.8 time, 1410.2 real, 17254.7 MB
[runlim] sample:		5808.8 time, 1420.2 real, 17254.7 MB
[runlim] sample:		5838.8 time, 1430.2 real, 17255.0 MB
[runlim] sample:		5868.8 time, 1440.2 real, 17258.3 MB
[runlim] sample:		5898.8 time, 1450.2 real, 17258.3 MB
[runlim] sample:		5928.8 time, 1460.2 real, 17261.9 MB
[runlim] sample:		5958.8 time, 1470.2 real, 17261.9 MB
[runlim] sample:		5988.8 time, 1480.2 real, 17261.9 MB
[runlim] sample:		6018.7 time, 1490.2 real, 17265.3 MB
[runlim] sample:		6048.7 time, 1500.2 real, 17265.3 MB
[runlim] sample:		6078.7 time, 1510.2 real, 17266.0 MB
[runlim] sample:		6108.7 time, 1520.2 real, 17269.4 MB
[runlim] sample:		6138.7 time, 1530.2 real, 17269.4 MB
[runlim] sample:		6168.7 time, 1540.2 real, 17272.7 MB
[runlim] sample:		6198.7 time, 1550.2 real, 17272.7 MB
[runlim] sample:		6228.7 time, 1560.2 real, 17272.7 MB
[runlim] sample:		6258.7 time, 1570.2 real, 17275.8 MB
[runlim] sample:		6288.7 time, 1580.2 real, 17275.8 MB
[runlim] sample:		6318.7 time, 1590.2 real, 17275.8 MB
[runlim] sample:		6348.7 time, 1600.2 real, 17278.9 MB
[runlim] sample:		6378.7 time, 1610.2 real, 17278.9 MB
[runlim] sample:		6408.7 time, 1620.2 real, 17279.2 MB
[runlim] sample:		6438.7 time, 1630.2 real, 17282.0 MB
[runlim] sample:		6468.7 time, 1640.2 real, 17282.0 MB
[runlim] sample:		6498.7 time, 1650.2 real, 17285.1 MB
[runlim] sample:		6528.7 time, 1660.2 real, 17285.1 MB
[runlim] sample:		6558.7 time, 1670.2 real, 17285.1 MB
[runlim] sample:		6588.7 time, 1680.2 real, 17289.0 MB
[runlim] sample:		6618.7 time, 1690.2 real, 17289.0 MB
[runlim] sample:		6648.7 time, 1700.2 real, 17289.0 MB
[runlim] sample:		6678.7 time, 1710.2 real, 17291.8 MB
Root relaxation solution time = 1489.59 sec. (1092962.17 ticks)

        Nodes                                         Cuts/
   Node  Left     Objective  IInf  Best Integer    Best Bound    ItCnt     Gap

      0     0        0.0000  2936                      0.0000      233         
[runlim] sample:		6703.9 time, 1720.2 real, 20153.1 MB
[runlim] sample:		6733.9 time, 1730.2 real, 20154.7 MB
[runlim] sample:		6763.9 time, 1740.2 real, 20158.6 MB
[runlim] sample:		6793.9 time, 1750.2 real, 20159.1 MB
[runlim] sample:		6823.9 time, 1760.2 real, 20159.6 MB
[runlim] sample:		6853.9 time, 1770.2 real, 20165.4 MB
[runlim] sample:		6883.9 time, 1780.2 real, 20165.9 MB
[runlim] sample:		6913.9 time, 1790.2 real, 20177.0 MB
[runlim] sample:		6943.7 time, 1800.2 real, 0.0 MB
[runlim] end:			Wed Oct  9 04:36:54 2024
[runlim] status:		out of time
[runlim] result:		2
[runlim] children:		0
[runlim] real:			1801.00 seconds
[runlim] time:			6944.48 seconds
[runlim] space:			23774.9 MB
[runlim] samples:		18008
